unknown
(model
; cardinality of BoundSet is 2
(declare-sort BoundSet 0)
; rep: @uc_BoundSet_0
; rep: @uc_BoundSet_1
(declare-sort UnboundSet 0)
(define-fun IsInDress ((BOUND_VARIABLE_423 BoundSet)) Bool true)
(define-fun HasBrownHair ((BOUND_VARIABLE_423 BoundSet)) Bool true)
(define-fun HasSomethingelse ((BOUND_VARIABLE_423 BoundSet)) Bool true)
(define-fun IsCarries ((BOUND_VARIABLE_435 BoundSet) (BOUND_VARIABLE_436 BoundSet)) Bool false)
)
sat
(model
; cardinality of BoundSet is 1
(declare-sort BoundSet 0)
; rep: @uc_BoundSet_0
(declare-sort UnboundSet 0)
(define-fun IsInDress ((BOUND_VARIABLE_450 BoundSet)) Bool true)
(define-fun HasBrownHair ((BOUND_VARIABLE_450 BoundSet)) Bool true)
(define-fun HasSomethingelse ((BOUND_VARIABLE_450 BoundSet)) Bool true)
(define-fun IsCarries ((BOUND_VARIABLE_458 BoundSet) (BOUND_VARIABLE_459 BoundSet)) Bool false)
)
